(set-logic QF_S)
(set-option :strings-exp true)
(set-option :produce-models true)
(declare-fun sigmaStar_0 () String)
(declare-fun literal_3 () String)
(declare-fun x_4 () String)
(assert (= literal_3 "\x3c\x69\x6d\x67\x20\x73\x72\x63\x3d\x27\x69\x6d\x61\x67\x65\x73\x2f\x62\x75\x6c\x6c\x65\x74\x2e\x67\x69\x66\x27\x20\x61\x6c\x74\x3d\x27\x27\x3e\x20"))
(assert (= x_4 (str.++ literal_3 sigmaStar_0)))
(assert (str.in.re x_4 (re.++ (re.* re.allchar) (re.++ (str.to.re "\x5c\x3c\x53\x43\x52\x49\x50\x54") (re.* re.allchar)))))
(check-sat)
(get-model)
